39868500
7424461
21991834
12390830
45551884
44192980
15069243
23435217
21505144
44778680
24891114
37241915
14647756
45908830
12234296
9575613
21139661
6173369
17264822
47641568
18837537
19171938
44261562
42318523
26094559
36217917
7900531
12887738
34864129
35894153
48318411
39364022
48154252
14185439
46994730
11457633
18926093
42105605
25102652
19907851
7040172
8915309
49772847
41302474
44966953
34408228
30754569
39324915
8666984
43895515
8417149
40517513
33346023
16900047
48699767
26262039
39517141
32524425
37086619
18968051
7553999
24741180
30029358
15533075
19774837
24153816
27114350
20515106
16951090
20781187
18849647
14121923
35655048
26760008
27919207
32186132
43223132
49834633
38829018
35513737
26030134
37436149
20408560
34057618
15039486
39253504
18863408
12791622
16456054
25811146
13658252
31387941
12461529
33203520
13861019
20731031
31045494
19109856
31118691
7682854
11154936
29551443
37220064
30237683
13759385
40852306
9577719
24156188
41868718
38406289
11436351
43448425
19489059
32010310
24182156
19919518
18994518
43058178
44298594
6959948
